(declare-sort sk_a 0)
(declare-datatypes ()
  ((list (nil) (cons (head sk_a) (tail list)))))
(declare-datatypes () ((Nat (Z) (S (p Nat)))))
(declare-fun minus (Nat Nat) Nat)
(declare-fun len (list) Nat)
(declare-fun drop (Nat list) list)
(assert
  (not
    (forall ((n Nat) (xs list))
      (= (len (drop n xs)) (minus (len xs) n)))))
(assert
  (forall ((x Nat) (y Nat))
    (= (minus x y)
      (ite (is-S x) (ite (is-S y) (minus (p x) (p y)) (S (p x))) Z))))
(assert
  (forall ((x list))
    (= (len x) (ite (is-cons x) (S (len (tail x))) Z))))
(assert
  (forall ((x Nat) (y list))
    (= (drop x y)
      (ite (is-S x) (ite (is-cons y) (drop (p x) (tail y)) nil) y))))
(check-sat)
